/*********************************************
 * OPL 12.10.0.0 Data
 * Author: Thomas
 * Creation Date: 21 avr. 2020 at 14:42:36
 *********************************************/
nCars = 15;
len = [ 4, 4.5, 5, 4.1, 2.4, 5.2, 3.7, 3.5, 3.2, 4.5, 2.3, 3.3, 3.8, 4.6, 3 ];
 